Version identifier: 12.10.0.0 | 2019-11-26 | 843d4de
CPXPARAM_WorkMem                                 16384
CPXPARAM_MIP_Limits_TreeMemory                   24576
Tried aggregator 2 times.
Aggregator did 45 substitutions.
Reduced MIP has 245 rows, 300 columns, and 1195 nonzeros.
Reduced MIP has 300 binaries, 0 generals, 0 SOSs, and 0 indicators.
Presolve time = 0,00 sec. (1,11 ticks)
Found incumbent of value 4825,000000 after 0,00 sec. (2,01 ticks)
Probing time = 0,00 sec. (0,47 ticks)
Tried aggregator 1 time.
Detecting symmetries...
MIP Presolve eliminated 55 rows and 0 columns.
MIP Presolve added 110 rows and 0 columns.
Reduced MIP has 300 rows, 300 columns, and 1250 nonzeros.
Reduced MIP has 300 binaries, 0 generals, 0 SOSs, and 0 indicators.
Presolve time = 0,00 sec. (1,55 ticks)
Probing time = 0,00 sec. (0,46 ticks)
Clique table members: 835.
MIP emphasis: balance optimality and feasibility.
MIP search method: dynamic search.
Parallel mode: deterministic, using up to 16 threads.
Root relaxation solution time = 0,00 sec. (1,48 ticks)

        Nodes                                         Cuts/
   Node  Left     Objective  IInf  Best Integer    Best Bound    ItCnt     Gap

*     0+    0                         4825,0000        0,0000           100,00%
*     0+    0                         2778,0000        0,0000           100,00%
      0     0      965,0000   218     2778,0000      965,0000      143   65,26%
      0     0      965,0000   218     2778,0000     Cuts: 131      202   65,26%
      0     0      970,0542   218     2778,0000     Cuts: 175      313   65,08%
      0     0      978,1527   218     2778,0000     Cuts: 175      369   64,79%
      0     0      982,8621   218     2778,0000     Cuts: 153      415   64,62%
*     0+    0                         2517,0000      982,8621            60,95%
      0     0      984,3384   218     2517,0000     Cuts: 116      475   60,89%
      0     0     1206,7119   218     2517,0000     Cuts: 175      736   52,06%
      0     0     1237,7144   218     2517,0000     Cuts: 175      882   50,83%
*     0+    0                         2385,0000     1237,7144            48,10%
      0     0     1254,9584   218     2385,0000     Cuts: 175     1039   47,38%
      0     0     1262,2892   218     2385,0000     Cuts: 132     1154   47,07%
      0     0     1263,9427   218     2385,0000      Cuts: 46     1183   47,00%
      0     0     1264,3426   218     2385,0000       Cuts: 4     1189   46,99%
      0     0     1264,6163   218     2385,0000       Cuts: 2     1195   46,98%
      0     2     1264,6163   280     2385,0000     1264,6163     1195   46,98%
Elapsed time = 0,36 sec. (152,64 ticks, tree = 0,02 MB, solutions = 4)
*  1111+  595                         2343,0000     1707,9325            27,10%
   2263  1148     2302,3858    92     2343,0000     1892,5790    86758   19,22%
*  3204+ 1743                         2317,0000     1969,3089            15,01%
   4984  2344     2289,7282    92     2317,0000     2013,9307   201077   13,08%
   5609  2539     2294,3393   135     2317,0000     2038,5513   230783   12,02%

Performing restart 1

Repeating presolve.
Tried aggregator 1 time.
MIP Presolve eliminated 31 rows and 19 columns.
MIP Presolve added 32 rows and 0 columns.
MIP Presolve modified 54 coefficients.
Reduced MIP has 301 rows, 281 columns, and 1135 nonzeros.
Reduced MIP has 281 binaries, 0 generals, 0 SOSs, and 0 indicators.
Presolve time = 0,00 sec. (1,25 ticks)
Tried aggregator 1 time.
Reduced MIP has 301 rows, 281 columns, and 1135 nonzeros.
Reduced MIP has 281 binaries, 0 generals, 0 SOSs, and 0 indicators.
Presolve time = 0,00 sec. (1,12 ticks)
Represolve time = 0,02 sec. (9,91 ticks)
   6617     0     1290,6464   280     2317,0000      Cuts: 13   287261    9,80%
   6617     0     1311,0545   280     2317,0000       Cuts: 7   287351    9,80%
   6617     0     1315,3976   280     2317,0000       Cuts: 7   287392    9,80%
   6617     0     1319,8090   280     2317,0000       Cuts: 9   287457    9,80%
   6617     0     1329,0625   280     2317,0000      Cuts: 14   287527    9,80%
   6617     2     1329,0625   279     2317,0000     2089,8454   287527    9,80%
   6983    41     1655,9914   174     2317,0000     2089,8454   293152    9,80%
   8340  1202     2076,4672   159     2317,0000     2089,8454   368624    9,80%
  10245  2649     2241,6724    87     2317,0000     2089,8454   458571    9,80%
  11915  3921     2135,3546   175     2317,0000     2089,8454   546164    9,80%
  13859  5591        cutoff           2317,0000     2089,8454   657126    9,80%

Performing restart 2

Repeating presolve.
Tried aggregator 1 time.
Reduced MIP has 301 rows, 281 columns, and 1135 nonzeros.
Reduced MIP has 281 binaries, 0 generals, 0 SOSs, and 0 indicators.
Presolve time = 0,00 sec. (0,84 ticks)
Tried aggregator 1 time.
Reduced MIP has 301 rows, 281 columns, and 1135 nonzeros.
Reduced MIP has 281 binaries, 0 generals, 0 SOSs, and 0 indicators.
Presolve time = 0,00 sec. (1,12 ticks)
Represolve time = 0,03 sec. (17,33 ticks)
  15048     0     1358,6654   278     2317,0000      Cuts: 16   730915    9,80%
  15048     0     1368,8841   278     2317,0000       Cuts: 5   730998    9,80%
  15048     0     1374,6774   278     2317,0000       Cuts: 5   731061    9,80%
  15048     0     1383,7791   278     2317,0000       Cuts: 9   731159    9,80%
  15048     0     1389,1250   278     2317,0000      Cuts: 13   731237    9,80%
  15048     0     1394,9663   278     2317,0000      Cuts: 17   731310    9,80%
  17948  1197        cutoff           2317,0000     2089,8454   819824    9,80%
Elapsed time = 4,61 sec. (3422,08 ticks, tree = 2,81 MB, solutions = 6)

Clique cuts applied:  61
Cover cuts applied:  393
Flow cuts applied:  7
Mixed integer rounding cuts applied:  69
Zero-half cuts applied:  10
Lift and project cuts applied:  13
Gomory fractional cuts applied:  52

Root node processing (before b&c):
  Real time             =    0,35 sec. (152,26 ticks)
Parallel b&c, 16 threads:
  Real time             =    5,11 sec. (3734,08 ticks)
  Sync time (average)   =    1,36 sec.
  Wait time (average)   =    0,01 sec.
                          ------------
Total (root+branch&cut) =    5,46 sec. (3886,35 ticks)
